Linux optc-09-16 4.15.0-58-generic #64-Ubuntu SMP Tue Aug 6 11:12:41 UTC 2019 x86_64 x86_64 x86_64 GNU/Linux

top - 20:36:23 up 1 day, 10:37,  0 users,  load average: 0,85, 0,95, 0,99
Tasks: 289 gesamt,   1 laufend, 149 schlafend,   0 gestoppt,   0 Zombie
%CPU(s):  7,2 be,  0,3 sy,  0,0 ni, 92,6 un,  0,0 wa,  0,0 hi,  0,0 si,  0,0 st
KiB Spch : 97514992 gesamt, 88305968 frei,   648704 belegt,  8560320 Puff/Cache
KiB Swap:  8388604 gesamt,  8388604 frei,        0 belegt. 96114184 verfü Spch 

  PID USER      PR  NI    VIRT    RES    SHR S  %CPU %MEM     ZEIT+ BEFEHL
 5020 bzfhende  20   0   52664   4244   3504 R   6,2  0,0   0:00.01 top
    1 root      20   0  233872   9412   6688 S   0,0  0,0   0:11.53 systemd
    2 root      20   0       0      0      0 S   0,0  0,0   0:00.12 kthreadd
    3 root      20   0       0      0      0 I   0,0  0,0   0:00.00 kworker/0:0
    4 root       0 -20       0      0      0 I   0,0  0,0   0:00.00 kworker/0:+
    6 root      20   0       0      0      0 I   0,0  0,0   0:00.00 kworker/u3+
    7 root       0 -20       0      0      0 I   0,0  0,0   0:00.00 mm_percpu_+
    8 root      20   0       0      0      0 S   0,0  0,0   0:00.00 ksoftirqd/0

hard time limit: 04:10:00
hard mem limit: 55100

SLURM jobID: 2182523

@01 /nfs/optimi/kombadon/IP/miplib3/gen.mps.gz ===========
-----------------------------
Do 22. Aug 20:36:23 CEST 2019
-----------------------------
@03 1566498983
@05 7200
SCIP version 6.0.0 [precision: 8 byte] [memory: block] [mode: optimized] [LP solver: CPLEX 12.8.0.0] [GitHash: 41ab6e0014]
Copyright (C) 2002-2018 Konrad-Zuse-Zentrum fuer Informationstechnik Berlin (ZIB)

External codes: 
  Readline 7.0         GNU library for command line editing (gnu.org/s/readline)
  CPLEX 12.8.0.0       Linear Programming Solver developed by IBM (www.cplex.com)
  CppAD 20180000.0     Algorithmic Differentiation of C++ algorithms developed by B. Bell (www.coin-or.org/CppAD)
  ZLIB 1.2.11          General purpose compression library by J. Gailly and M. Adler (zlib.net)
  GMP 6.1.2            GNU Multiple Precision Arithmetic Library developed by T. Granlund (gmplib.org)
  bliss 0.73p          Computing Graph Automorphism Groups by T. Junttila and P. Kaski (http://www.tcs.hut.fi/Software/bliss/)

user parameter file <scip.set> not found - using default parameters

SCIP> 
SCIP> set load /home/optimi/bzfhende/opti/scip-opti/check/../settings/enable_treeeprofile.set
loaded parameter file </home/optimi/bzfhende/opti/scip-opti/check/../settings/enable_treeprofile.set>
SCIP> set misc referencevalue 1.1231336272e+05
misc/referencevalue = 112313.36272
SCIP> set limits time 7200
limits/time = 7200
SCIP> set limits nodes 2100000000
limits/nodes = 2100000000
SCIP> set limits memory 50000
limits/memory = 50000
SCIP> set lp advanced threads 1
lp/threads = 1
SCIP> set timing clocktype 1
timing/clocktype = 1
SCIP> set display freq 10000
display/freq = 10000
SCIP> set memory savefac 1.0
memory/savefac = 1
SCIP> set save /home/optimi/bzfhende/opti/scip-opti/check/treesize.estimation.jouurnal.3/bzfhende.MMMc.59_gen.scip.M640.enable_treeprofile.set
saved parameter file </home/optimi/bzfhende/opti/scip-opti/check/treesize.estimation.journal.3/bzfhende.MMMc.59_gen.scip.M640.enable_treeprofile.set>
SCIP> read /nfs/optimi/kombadon/IP/miplib3/gen.mps.gz

read problem </nfs/optimi/kombadon/IP/miplib3/gen.mps.gz>
============

original problem has 870 variables (144 bin, 6 int, 0 impl, 720 cont) and 780 constraints
SCIP> display parameters

number of parameters = 2448
non-default parameter settings:
display/freq = 10000
limits/time = 7200
limits/nodes = 2100000000
limits/memory = 50000
lp/threads = 1
memory/savefac = 1
misc/referencevalue = 112313.36272
presolving/maxrestarts = 0
estimates/profile/enabled = TRUE
estimates/profile/maxdepthfactor = 10
estimates/profile/freq = 0

SCIP> optimize

Activating tree profile data collection
presolving:
(round 1, fast)       197 del vars, 208 del conss, 0 add conss, 473 chg bounds, 0 chg sides, 3 chg coeffs, 0 upgd conss, 0 impls, 17 clqs
(round 2, fast)       232 del vars, 317 del conss, 0 add conss, 473 chg bounds, 0 chg sides, 3 chg coeffs, 0 upgd conss, 0 impls, 17 clqs
(round 3, fast)       267 del vars, 317 del conss, 0 add conss, 473 chg bounds, 0 chg sides, 3 chg coeffs, 0 upgd conss, 0 impls, 17 clqs
(round 4, fast)       267 del vars, 318 del conss, 0 add conss, 475 chg bounds, 0 chg sides, 3 chg coeffs, 0 upgd conss, 0 impls, 17 clqs
(round 5, fast)       268 del vars, 318 del conss, 0 add conss, 480 chg bounds, 0 chg sides, 3 chg coeffs, 0 upgd conss, 0 impls, 17 clqs
(round 6, exhaustive) 268 del vars, 318 del conss, 0 add conss, 480 chg bounds, 0 chg sides, 3 chg coeffs, 336 upgd conss, 0 impls, 17 clqs
(round 7, fast)       268 del vars, 323 del conss, 5 add conss, 480 chg bounds, 1 chg sides, 13 chg coeffs, 336 upgd conss, 324 impls, 17 clqs
(round 8, fast)       268 del vars, 323 del conss, 5 add conss, 480 chg bounds, 4 chg sides, 26 chg coeffs, 336 upgd conss, 324 impls, 17 clqs
(round 9, medium)     268 del vars, 323 del conss, 6 add conss, 480 chg bounds, 5 chg sides, 29 chg coeffs, 336 upgd conss, 324 impls, 17 clqs
(round 10, fast)       268 del vars, 323 del conss, 6 add conss, 480 chg bounds, 6 chg sides, 34 chg coeffs, 336 upgd conss, 324 impls, 17 clqs
(round 11, exhaustive) 451 del vars, 323 del conss, 6 add conss, 480 chg bounds, 6 chg sides, 34 chg coeffs, 336 upgd conss, 324 impls, 17 clqs
(round 12, fast)       462 del vars, 510 del conss, 6 add conss, 490 chg bounds, 6 chg sides, 34 chg coeffs, 336 upgd conss, 324 impls, 17 clqs
(round 13, fast)       464 del vars, 512 del conss, 6 add conss, 490 chg bounds, 6 chg sides, 34 chg coeffs, 336 upgd conss, 324 impls, 17 clqs
(round 14, fast)       469 del vars, 517 del conss, 6 add conss, 490 chg bounds, 6 chg sides, 34 chg coeffs, 336 upgd conss, 324 impls, 17 clqs
(round 15, fast)       474 del vars, 517 del conss, 6 add conss, 490 chg bounds, 6 chg sides, 34 chg coeffs, 336 upgd conss, 324 impls, 17 clqs
(round 16, exhaustive) 479 del vars, 517 del conss, 6 add conss, 490 chg bounds, 6 chg sides, 34 chg coeffs, 336 upgd conss, 324 impls, 17 clqs
(round 17, fast)       480 del vars, 523 del conss, 6 add conss, 492 chg bounds, 6 chg sides, 34 chg coeffs, 336 upgd conss, 324 impls, 17 clqs
(round 18, fast)       486 del vars, 523 del conss, 6 add conss, 492 chg bounds, 6 chg sides, 34 chg coeffs, 336 upgd conss, 324 impls, 17 clqs
   (0.0s) probing cycle finished: starting next cycle
presolving (19 rounds: 19 fast, 5 medium, 4 exhaustive):
 486 deleted vars, 523 deleted constraints, 6 added constraints, 492 tightened bounds, 0 added holes, 6 changed sides, 34 changed coefficients
 639 implications, 186 cliques
presolved problem has 384 variables (98 bin, 0 int, 1 impl, 285 cont) and 263 constraints
    141 constraints of type <varbound>
      6 constraints of type <knapsack>
      7 constraints of type <setppc>
    109 constraints of type <linear>
Presolving Time: 0.01

 time | node  | left  |LP iter|LP it/n| mem |mdpt |frac |vars |cons |cols |rows |cuts |confs|strbr|  dualbound   | primalbound  |  gap   
k 0.0s|     1 |     0 |    15 |     - |5155k|   0 |   - | 384 | 264 | 384 | 263 |   0 |   0 |   0 | 6.862112e+04 | 1.150671e+05 |  67.68%
  0.0s|     1 |     0 |    86 |     - |5157k|   0 |  10 | 384 | 264 | 384 | 263 |   0 |   0 |   0 | 1.122749e+05 | 1.150671e+05 |   2.49%
s 0.0s|     1 |     0 |    86 |     - |5162k|   0 |  10 | 384 | 264 | 384 | 263 |   0 |   0 |   0 | 1.122749e+05 | 1.133620e+05 |   0.97%
b 0.0s|     1 |     0 |   106 |     - |5225k|   0 |   - | 384 | 264 | 384 | 263 |   0 |   0 |   0 | 1.122749e+05 | 1.123976e+05 |   0.11%
  0.0s|     1 |     0 |   134 |     - |5324k|   0 |   6 | 384 | 264 | 384 | 267 |   4 |   0 |   0 | 1.123012e+05 | 1.123976e+05 |   0.09%
  0.0s|     1 |     0 |   134 |     - |5327k|   0 |   6 | 384 | 264 | 384 | 267 |   4 |   0 |   0 | 1.123012e+05 | 1.123976e+05 |   0.09%
  0.0s|     1 |     0 |   151 |     - |5353k|   0 |   8 | 384 | 264 | 384 | 271 |   8 |   0 |   0 | 1.123082e+05 | 1.123976e+05 |   0.08%
  0.0s|     1 |     0 |   164 |     - |5416k|   0 |   8 | 384 | 264 | 384 | 273 |  10 |   0 |   0 | 1.123130e+05 | 1.123976e+05 |   0.08%
  0.0s|     1 |     0 |   165 |     - |5453k|   0 |   0 | 384 | 264 | 384 | 275 |  12 |   0 |   0 | 1.123134e+05 | 1.123976e+05 |   0.07%
  0.0s|     1 |     0 |   165 |     - |5453k|   0 |   0 | 384 | 264 | 384 | 275 |  12 |   0 |   0 | 1.123134e+05 | 1.123976e+05 |   0.07%
u 0.0s|     1 |     0 |   165 |     - |5459k|   0 |   - | 384 | 264 | 384 | 275 |   0 |   0 |   0 | 1.123134e+05 | 1.123134e+05 |   0.00%
SCIP nodes: 1 Estimation: -1
  0.0s|     1 |     0 |   165 |     - |5459k|   0 |   - | 384 | 264 | 384 | 275 |  12 |   0 |   0 | 1.123134e+05 | 1.123134e+05 |   0.00%
Report 1
Time Elapsed: 0.02
  Tree Data        : 1 nodes (1 visited, 0 inner, 1 leaves, 0 open), progress: 1.0000
Tree Estimation    :       estim       value       trend  resolution      smooth
  wbe              :          -1           -           -           -           -
  tree profile     :          -1           -           -           -           -
  gap              :           1     1.00000     1.00000           1           1
  progress         :           1     1.00000     1.00000           1           1
  leaf-frequency   :           1     0.50000     1.00000           1           1
  ssg              :           1     0.00000    -1.00000           1           1
  open-nodes       :           1     0.00000     0.00000           1           1
End of Report 1


SCIP Status        : problem is solved [optimal solution found]
Solving Time (sec) : 0.02
Solving Nodes      : 1
Primal Bound       : +1.12313362718000e+05 (7 solutions)
Dual Bound         : +1.12313362718000e+05
Gap                : 0.00 %

SCIP> display statistics

SCIP Status        : problem is solved [optimal solution found]
Total Time         :       0.02
  solving          :       0.02
  presolving       :       0.01 (included in solving)
  reading          :       0.00
  copying          :       0.00 (0 times copied the problem)
Original Problem   :
  Problem name     : GEN
  Variables        : 870 (144 binary, 6 integer, 0 implicit integer, 720 continuous)
  Constraints      : 780 initial, 780 maximal
  Objective        : minimize, 582 non-zeros (abs.min = 1.3666, abs.max = 2033.84)
Presolved Problem  :
  Problem name     : t_GEN
  Variables        : 384 (98 binary, 0 integer, 1 implicit integer, 285 continuous)
  Constraints      : 263 initial, 264 maximal
  Objective        : minimize, 296 non-zeros (abs.min = 7.24784, abs.max = 186.569)
Presolvers         :   ExecTime  SetupTime  Calls  FixedVars   AggrVars   ChgTypes  ChgBounds   AddHoles    DelCons    AddCons   ChgSides   ChgCoefs
  boundshift       :       0.00       0.00      0          0          0          0          0          0          0          0          0          0
  convertinttobin  :       0.00       0.00      0          0          0          0          0          0          0          0          0          0
  domcol           :       0.00       0.00      1          0          0          0          0          0          0          0          0          0
  dualagg          :       0.00       0.00      0          0          0          0          0          0          0          0          0          0
  dualcomp         :       0.00       0.00      3        188          0          0          0          0          0          0          0          0
  dualinfer        :       0.00       0.00      0          0          0          0          0          0          0          0          0          0
  gateextraction   :       0.00       0.00      0          0          0          0          0          0          0          0          0          0
  implics          :       0.00       0.00      5          0          0          0          0          0          0          0          0          0
  inttobinary      :       0.00       0.00      1          0          0          0          0          0          0          0          0          0
  qpkktref         :       0.00       0.00      0          0          0          0          0          0          0          0          0          0
  redvub           :       0.00       0.00      0          0          0          0          0          0          0          0          0          0
  sparsify         :       0.00       0.00      1          0          0          0          0          0          0          0          0          0
  stuffing         :       0.00       0.00      0          0          0          0          0          0          0          0          0          0
  symbreak         :       0.00       0.00      0          0          0          0          0          0          0          0          0          0
  symmetry         :       0.00       0.00      0          0          0          0          0          0          0          0          0          0
  trivial          :       0.00       0.00     19          0          0          0          0          0          0          0          0          0
  tworowbnd        :       0.00       0.00      0          0          0          0          0          0          0          0          0          0
  dualfix          :       0.00       0.00     19         52          0          0          0          0          0          0          0          0
  genvbounds       :       0.00       0.00      0          0          0          0          0          0          0          0          0          0
  orbitalfixing    :       0.00       0.00      0          0          0          0          0          0          0          0          0          0
  probing          :       0.00       0.00      1          0          0          0          0          0          0          0          0          0
  pseudoobj        :       0.00       0.00      0          0          0          0          0          0          0          0          0          0
  vbounds          :       0.00       0.00      1          0          0          0          0          0          0          0          0          0
  varbound         :       0.00       0.00     17          0          0          0          0          0        183          0          0          0
  knapsack         :       0.00       0.00     20          0          0          0          0          0          5          6          6         31
  setppc           :       0.00       0.00     20          0          0          0          0          0          0          0          0          0
  linear           :       0.01       0.00     23         80        166          0        492          0        335          0          0          3
  logicor          :       0.00       0.00      0          0          0          0          0          0          0          0          0          0
  benders          :       0.00       0.00      0          0          0          0          0          0          0          0          0          0
  components       :       0.00       0.00      1          0          0          0          0          0          0          0          0          0
  root node        :          -          -      -          5          -          -          7          -          -          -          -          -
Constraints        :     Number  MaxNumber  #Separate #Propagate    #EnfoLP    #EnfoRelax  #EnfoPS    #Check   #ResProp    Cutoffs    DomReds       Cuts    Applied      Conss   Children
  benderslp        :          0          0          0          0          0          0          0         21          0          0          0          0          0          0          0
  integral         :          0          0          0          0          0          0          0         21          0          0          0          0          0          0          0
  varbound         :        141        141          6        385          0          0          0         15          0          0          0          0          0          0          0
  knapsack         :          6          6          6        389          0          0          0         13          0          1          0         17          6          0          0
  setppc           :          7          7          6        355          0          0          0         10          0          0          0          0          0          0          0
  linear           :        109        109          6        398          0          0          0         10          0          5          2          0          0          0          0
  logicor          :          0+         1          6          2          0          0          0          0          0          0          0          0          0          0          0
  benders          :          0          0          0          0          0          0          0          8          0          0          0          0          0          0          0
  countsols        :          0          0          0          0          0          0          0          8          0          0          0          0          0          0          0
  components       :          0          0          0          0          0          0          0          0          0          0          0          0          0          0          0
Constraint Timings :  TotalTime  SetupTime   Separate  Propagate     EnfoLP     EnfoPS     EnfoRelax   Check    ResProp    SB-Prop
  benderslp        :       0.00       0.00       0.00       0.00       0.00       0.00       0.00       0.00       0.00       0.00
  integral         :       0.00       0.00       0.00       0.00       0.00       0.00       0.00       0.00       0.00       0.00
  varbound         :       0.00       0.00       0.00       0.00       0.00       0.00       0.00       0.00       0.00       0.00
  knapsack         :       0.00       0.00       0.00       0.00       0.00       0.00       0.00       0.00       0.00       0.00
  setppc           :       0.00       0.00       0.00       0.00       0.00       0.00       0.00       0.00       0.00       0.00
  linear           :       0.00       0.00       0.00       0.00       0.00       0.00       0.00       0.00       0.00       0.00
  logicor          :       0.00       0.00       0.00       0.00       0.00       0.00       0.00       0.00       0.00       0.00
  benders          :       0.00       0.00       0.00       0.00       0.00       0.00       0.00       0.00       0.00       0.00
  countsols        :       0.00       0.00       0.00       0.00       0.00       0.00       0.00       0.00       0.00       0.00
  components       :       0.00       0.00       0.00       0.00       0.00       0.00       0.00       0.00       0.00       0.00
Propagators        : #Propagate   #ResProp    Cutoffs    DomReds
  dualfix          :          4          0          0          0
  genvbounds       :          0          0          0          0
  nlobbt           :          0          0          0          0
  obbt             :          0          0          0          0
  orbitalfixing    :          0          0          0          0
  probing          :          0          0          0          0
  pseudoobj        :         13          0          0          0
  redcost          :          8          0          0          5
  rootredcost      :          0          0          0          0
  vbounds          :        115          0          0          0
Propagator Timings :  TotalTime  SetupTime   Presolve  Propagate    ResProp    SB-Prop
  dualfix          :       0.00       0.00       0.00       0.00       0.00       0.00
  genvbounds       :       0.00       0.00       0.00       0.00       0.00       0.00
  nlobbt           :       0.00       0.00       0.00       0.00       0.00       0.00
  obbt             :       0.00       0.00       0.00       0.00       0.00       0.00
  orbitalfixing    :       0.00       0.00       0.00       0.00       0.00       0.00
  probing          :       0.00       0.00       0.00       0.00       0.00       0.00
  pseudoobj        :       0.00       0.00       0.00       0.00       0.00       0.00
  redcost          :       0.00       0.00       0.00       0.00       0.00       0.00
  rootredcost      :       0.00       0.00       0.00       0.00       0.00       0.00
  vbounds          :       0.00       0.00       0.00       0.00       0.00       0.00
Conflict Analysis  :       Time      Calls    Success    DomReds  Conflicts   Literals    Reconvs ReconvLits   Dualrays   Nonzeros   LP Iters   (pool size: [10000,10000])
  propagation      :       0.00          0          0          -          0        0.0          0        0.0          -          -          -
  infeasible LP    :       0.00          0          0          -          0        0.0          0        0.0          0        0.0          0
  bound exceed. LP :       0.00          0          0          -          0        0.0          0        0.0          0        0.0          0
  strong branching :       0.00          0          0          -          0        0.0          0        0.0          -          -          0
  pseudo solution  :       0.00          0          0          -          0        0.0          0        0.0          -          -          -
  applied globally :       0.00          -          -          0          0        0.0          -          -          0          -          -
  applied locally  :          -          -          -          0          0        0.0          -          -          0          -          -
Separators         :   ExecTime  SetupTime      Calls    Cutoffs    DomReds       Cuts    Applied      Conss
  cut pool         :       0.00                     9          -          -         20          -          -    (maximal pool size: 96)
  aggregation      :       0.00       0.00          4          0          0          0          0          0
  cgmip            :       0.00       0.00          0          0          0          0          0          0
  clique           :       0.00       0.00          4          0          0          0          0          0
  closecuts        :       0.00       0.00          0          0          0          0          0          0
  cmir             :       0.00       0.00          0          0          0          0          2          0
  convexproj       :       0.00       0.00          0          0          0          0          0          0
  disjunctive      :       0.00       0.00          0          0          0          0          0          0
  eccuts           :       0.00       0.00          0          0          0          0          0          0
  flowcover        :       0.00       0.00          0          0          0          0          4          0
  gauge            :       0.00       0.00          0          0          0          0          0          0
  gomory           :       0.01       0.00          4          0          0          0          0          0
  impliedbounds    :       0.00       0.00          4          0          0          0          0          0
  intobj           :       0.00       0.00          0          0          0          0          0          0
  mcf              :       0.00       0.00          1          0          0          0          0          0
  oddcycle         :       0.00       0.00          0          0          0          0          0          0
  rapidlearning    :       0.00       0.00          0          0          0          0          0          0
  strongcg         :       0.00       0.00          4          0          0          0          0          0
  zerohalf         :       0.00       0.00          4          0          0          0          0          0
Pricers            :   ExecTime  SetupTime      Calls       Vars
  problem variables:       0.00          -          0          0
Branching Rules    :   ExecTime  SetupTime   BranchLP  BranchExt   BranchPS    Cutoffs    DomReds       Cuts      Conss   Children
  allfullstrong    :       0.00       0.00          0          0          0          0          0          0          0          0
  cloud            :       0.00       0.00          0          0          0          0          0          0          0          0
  distribution     :       0.00       0.00          0          0          0          0          0          0          0          0
  fullstrong       :       0.00       0.00          0          0          0          0          0          0          0          0
  inference        :       0.00       0.00          0          0          0          0          0          0          0          0
  leastinf         :       0.00       0.00          0          0          0          0          0          0          0          0
  lookahead        :       0.00       0.00          0          0          0          0          0          0          0          0
  mostinf          :       0.00       0.00          0          0          0          0          0          0          0          0
  multaggr         :       0.00       0.00          0          0          0          0          0          0          0          0
  nodereopt        :       0.00       0.00          0          0          0          0          0          0          0          0
  pscost           :       0.00       0.00          0          0          0          0          0          0          0          0
  random           :       0.00       0.00          0          0          0          0          0          0          0          0
  relpscost        :       0.00       0.00          0          0          0          0          0          0          0          0
Primal Heuristics  :   ExecTime  SetupTime      Calls      Found       Best
  LP solutions     :       0.00          -          -          0          0
  relax solutions  :       0.00          -          -          0          0
  pseudo solutions :       0.00          -          -          0          0
  strong branching :       0.00          -          -          0          0
  actconsdiving    :       0.00       0.00          0          0          0
  alns             :       0.00       0.00          0          0          0
  bound            :       0.00       0.00          0          0          0
  clique           :       0.00       0.00          1          0          0
  coefdiving       :       0.00       0.00          0          0          0
  completesol      :       0.00       0.00          0          0          0
  conflictdiving   :       0.00       0.00          0          0          0
  crossover        :       0.00       0.00          0          0          0
  dins             :       0.00       0.00          0          0          0
  distributiondivin:       0.00       0.00          0          0          0
  dualval          :       0.00       0.00          0          0          0
  farkasdiving     :       0.00       0.00          1          1          1
  feaspump         :       0.00       0.00          0          0          0
  fixandinfer      :       0.00       0.00          0          0          0
  fracdiving       :       0.00       0.00          0          0          0
  gins             :       0.00       0.00          0          0          0
  guideddiving     :       0.00       0.00          0          0          0
  indicator        :       0.00       0.00          0          0          0
  intdiving        :       0.00       0.00          0          0          0
  intshifting      :       0.00       0.00          0          0          0
  linesearchdiving :       0.00       0.00          0          0          0
  localbranching   :       0.00       0.00          0          0          0
  locks            :       0.00       0.00          1          1          1
  lpface           :       0.00       0.00          0          0          0
  mpec             :       0.00       0.00          0          0          0
  multistart       :       0.00       0.00          0          0          0
  mutation         :       0.00       0.00          0          0          0
  nlpdiving        :       0.00       0.00          0          0          0
  objpscostdiving  :       0.00       0.00          0          0          0
  octane           :       0.00       0.00          0          0          0
  ofins            :       0.00       0.00          0          0          0
  oneopt           :       0.00       0.00          2          1          1
  proximity        :       0.00       0.00          0          0          0
  pscostdiving     :       0.00       0.00          0          0          0
  randrounding     :       0.00       0.00          4          0          0
  rens             :       0.00       0.00          0          0          0
  reoptsols        :       0.00       0.00          0          0          0
  repair           :       0.00       0.00          0          0          0
  rins             :       0.00       0.00          0          0          0
  rootsoldiving    :       0.00       0.00          0          0          0
  rounding         :       0.00       0.00          4          0          0
  shiftandpropagate:       0.00       0.00          0          0          0
  shifting         :       0.00       0.00          4          4          1
  simplerounding   :       0.00       0.00          7          0          0
  subnlp           :       0.00       0.00          0          0          0
  trivial          :       0.00       0.00          2          0          0
  trivialnegation  :       0.00       0.00          0          0          0
  trysol           :       0.00       0.00          0          0          0
  twoopt           :       0.00       0.00          0          0          0
  undercover       :       0.00       0.00          0          0          0
  vbounds          :       0.00       0.00          0          0          0
  veclendiving     :       0.00       0.00          0          0          0
  zeroobj          :       0.00       0.00          0          0          0
  zirounding       :       0.00       0.00          0          0          0
  other solutions  :          -          -          -          0          -
Diving Statistics  :      Calls      Nodes   LP Iters Backtracks  Conflicts   MinDepth   MaxDepth   AvgDepth  RoundSols  NLeafSols  MinSolDpt  MaxSolDpt  AvgSolDpt
  actconsdiving    :          0          -          -          -          -          -          -          -          -          -          -          -          -
  coefdiving       :          0          -          -          -          -          -          -          -          -          -          -          -          -
  conflictdiving   :          0          -          -          -          -          -          -          -          -          -          -          -          -
  distributiondivin:          0          -          -          -          -          -          -          -          -          -          -          -          -
  farkasdiving     :          1          0          0          0          0          1          1        1.0          0          1          1          1        1.0
  fracdiving       :          0          -          -          -          -          -          -          -          -          -          -          -          -
  guideddiving     :          0          -          -          -          -          -          -          -          -          -          -          -          -
  linesearchdiving :          0          -          -          -          -          -          -          -          -          -          -          -          -
  pscostdiving     :          0          -          -          -          -          -          -          -          -          -          -          -          -
  veclendiving     :          0          -          -          -          -          -          -          -          -          -          -          -          -
Neighborhoods      :      Calls  SetupTime  SolveTime SolveNodes       Sols       Best       Exp3  EpsGreedy        UCB TgtFixRate  Opt  Inf Node Stal  Sol  Usr Othr Actv
  rens             :          0       0.00       0.00          0          0          0    0.00000   -1.00000    1.00000      0.900    0    0    0    0    0    0    0    1
  rins             :          0       0.00       0.00          0          0          0    0.00000   -1.00000    1.00000      0.900    0    0    0    0    0    0    0    1
  mutation         :          0       0.00       0.00          0          0          0    0.00000   -1.00000    1.00000      0.900    0    0    0    0    0    0    0    1
  localbranching   :          0       0.00       0.00          0          0          0    0.00000   -1.00000    1.00000      0.900    0    0    0    0    0    0    0    1
  crossover        :          0       0.00       0.00          0          0          0    0.00000   -1.00000    1.00000      0.900    0    0    0    0    0    0    0    1
  proximity        :          0       0.00       0.00          0          0          0    0.00000   -1.00000    1.00000      0.900    0    0    0    0    0    0    0    1
  zeroobjective    :          0       0.00       0.00          0          0          0    0.00000   -1.00000    1.00000      0.900    0    0    0    0    0    0    0    1
  dins             :          0       0.00       0.00          0          0          0    0.00000   -1.00000    1.00000      0.900    0    0    0    0    0    0    0    1
LP                 :       Time      Calls Iterations  Iter/call   Iter/sec  Time-0-It Calls-0-It    ItLimit
  primal LP        :       0.00          0          0       0.00          -       0.00          0
  dual LP          :       0.00          7        130      26.00          -       0.00          2
  lex dual LP      :       0.00          0          0       0.00          -
  barrier LP       :       0.00          0          0       0.00          -       0.00          0
  resolve instable :       0.00          0          0       0.00          -
  diving/probing LP:       0.00          2         35      17.50          -
  strong branching :       0.00          0          0       0.00          -          -          -          0
    (at root node) :          -          0          0       0.00          -
  conflict analysis:       0.00          0          0       0.00          -
B&B Tree           :
  number of runs   :          1
  nodes            :          1 (0 internal, 1 leaves)
  feasible leaves  :          0
  infeas. leaves   :          0
  objective leaves :          1
  nodes (total)    :          1 (0 internal, 1 leaves)
  nodes left       :          0
  max depth        :          0
  max depth (total):          0
  backtracks       :          0 (0.0%)
  early backtracks :          0 (0.0%)
  nodes exc. ref.  :          0 (0.0%)
  delayed cutoffs  :          0
  repropagations   :          0 (0 domain reductions, 0 cutoffs)
  avg switch length:       2.00
  switching time   :       0.00
Root Node          :
  First LP value   : +1.12274850263414e+05
  First LP Iters   :         71
  First LP Time    :       0.00
  Final Dual Bound : +1.12313362718000e+05
  Final Root Iters :        150
  Root LP Estimate :                     -
Solution           :
  Solutions found  :          7 (4 improvements)
  First Solution   : +1.15067053748000e+05   (in run 1, after 1 nodes, 0.01 seconds, depth 37, found by <locks>)
  Gap First Sol.   :      67.68 %
  Gap Last Sol.    :       0.00 %
  Primal Bound     : +1.12313362718000e+05   (in run 1, after 1 nodes, 0.02 seconds, depth 1, found by <farkasdiving>)
  Dual Bound       : +1.12313362718000e+05
  Gap              :       0.00 %
  Avg. Gap         :      50.04 % (1.00 primal-dual integral)
  Tree Data        : 1 nodes (1 visited, 0 inner, 1 leaves, 0 open), progress: 1.0000
Tree Estimation    :       estim       value       trend  resolution      smooth
  wbe              :           1           -           -           -           -
  tree profile     :          -1           -           -           -           -
  gap              :           1     1.00000     1.00000           1           1
  progress         :           1     1.00000     1.00000           1           1
  leaf-frequency   :           1     0.50000     1.00000           1           1
  ssg              :           1     0.00000    -1.00000           1           1
  open-nodes       :           1     0.00000     0.00000           1           1


SCIP> checksol

check best solution
solution is feasible in original problem
Violation          :    absolute    relative
  bounds           : 0.00000e+00 0.00000e+00
  integrality      : 0.00000e+00           -
  LP rows          : 0.00000e+00 0.00000e+00
  constraints      : 0.00000e+00 0.00000e+00

SCIP> write sol /local/tmp/bzfhende-tmpdir/bzfhende.MMMc.59_gen.scip.M640.enable__treeprofile.sol

written solution information to file </local/tmp/bzfhende-tmpdir/bzfhende.MMMc.59_gen.scip.M640.enable_treeprofile.sol>

SCIP> quit

Disabling tree profile data collection
Read MPS: 1
MIP has 870 vars and 780 constraints
Read SOL: 1
Objective value computed by solver: 112313.362718

Integrality tolerance: 1/10000
Linear tolerance: 1/10000
Objective tolerance: 1/10000

Check SOL: Integrality 1 Constraints 1 Objective 1
Maximum violations: Integrality 0 Constraints 2e-14 Objective 1.703212e-13
@04 1566498983
-----------------------------
Do 22. Aug 20:36:23 CEST 2019
-----------------------------

=ready=
